
 102   30
  10   10   10   10   10   10   10   10   10   10   10   10   10   10   10   10   10   10   10   10   10   10   10   10   10   10   10   10   10   10

   0   0   0   0   0   0   0   0   0   0   0   0   0   0   0   0   0   0   0   0   0   0   0   0   0   0   0   0   0   0   0  25 2 3 4 5 7 8 9 10 11 12 13 14 16 17 18 19 20 21 22 23 25 26 33 34 38 
   2   0   0   1   0   0   0   0   0   0   0   0   0   1   0   1   1   0   0   0   0   0   0   0   1   0   0   0   0   6   0   9 54 53 46 43 39 32 27 15 6 
   2   0   3   0   0   1   0   0   0   0   0   1   0   0   0   0   0   0   0   0   0   0   0   0   0   0   0   0   0   0   0  16 101 99 77 62 61 58 55 54 52 51 50 44 42 40 36 27 
   4   0   5   0   0   0   2   0   0   0   0   0   0   0   0   0   0   0   0   0   2   0   0   0   0   1   1   0   0   0   0  21 101 100 79 77 76 66 65 64 60 59 58 55 54 53 50 47 45 43 42 40 36 
   4   1   0   0   1   0   0   0   0   0   0   1   0   0   0   0   0   0   0   4   0   0   0   0   0   0   0   3   0   0   0  16 101 100 99 77 76 68 63 59 58 57 53 49 47 43 39 29 
   1   0   0   0   0   0   0   0   0   3   0   0   0   0   0   0   0   2   0   5   0   0   1   0   0   0   0   0   0   0   0  15 101 100 78 69 67 62 61 60 58 55 52 48 36 28 24 
   7   0   0   0   0   0   0   1   0   0   0   0   0   0   1   0   0   0   0   0   0   1   0   0   9   0   0   3   0   0   0  10 96 62 60 57 55 54 39 36 35 31 
   3   5   6   0   0   0   0   9   0   0   0   0   0   0   0   0   0   0   0  10   0   0   0   1   2   0   0   0   0   0   0  18 101 98 79 78 76 72 65 62 61 59 57 55 54 49 47 45 41 35 
   2   6   0   0   0   0   0   0   0   0   0   0   0   0   0   8   0   0   0   0   6   6   0   0   0   6   0   0   0   2   0  14 101 100 78 67 65 64 61 60 54 51 47 42 36 31 
   8   0   0   0   7   0   0   0   0   0   3   0   0   0   0   0   8   0   0   0   7   0   0  10   3  10   0   0   0   4   2  19 101 100 99 98 94 78 77 76 67 66 62 61 60 59 54 53 49 42 39 
  10   0   0   0   0   0   0   0   0   0   0   0   1   6   0   6   0   0   0   0   0   0   0   0   0   0   0   0   3   0   0  16 99 94 87 80 78 76 69 67 62 61 55 54 52 42 39 28 
   3   0   0   0   0   0   0   0   0   0   0   5   0   0   0   0   0   0   0   5   0   6   0   0   0   0   0   0   7   8   0  15 99 93 78 76 69 67 66 62 61 57 54 47 39 36 30 
   9   0   0   0   0   0   0   0   0   0   0   0   0   8   0   3   0   0   0   0   4   0   0   0   0   4   5   0   0   0   0  21 101 99 98 96 94 93 88 80 78 77 76 72 64 60 59 56 55 54 52 51 42 
   3   0   5   3   0   6  10   7   0   9   0   0   0   0   8   0   0   0   0   0   0   0   0   0   0   4   0   0   0   0   0  16 96 94 93 91 79 77 66 64 60 59 58 54 49 45 44 43 
   8   0   0   7   0   0   0   0   0   0   0   0   6   0   0   0   0   0   0   0   0   0   0   0   0   6   0   0   0   0   0  14 98 89 79 77 76 67 65 63 62 60 57 49 40 35 
   2   0   0   0   8   0   0   0   1   4   0   5   0   0   0   8   0   6   0   9   0   0   0   0   8   0   6   0   0   5   0  10 78 64 63 60 58 57 55 54 40 24 
   9   0   0   0   0   0   3   0   5   0   0   0   0   0   3   0   0   0   0   0   0   0   0   0   0   0   0   0   0   0   0  17 101 98 97 95 80 79 78 76 72 68 55 54 51 49 48 47 41 
   9   0   0   0   0   0   0   0   0   0   0   0   0   4   0   0   0   0   1   0   0   0   0   0   0   0   0   0   0   0   0  13 100 99 90 80 78 77 76 68 64 60 55 40 36 
  10   0   0   0   0   0   0   0   0   0   0   0   0   0   5   0   0   0   0   0   0   0   0   6   0   0   9   0   0   0   0  11 97 77 72 66 62 60 54 49 47 40 39 
   4   0   0   0   8   0   0   0   0   0   0   0   0   0   0   0   0  10   6   0   0   0   0   0   0   0   0   0   0   0   5  15 100 95 93 90 80 79 78 71 68 65 64 60 59 55 36 
   4   0   0   0   0   0   0   0   0   0   6   0   0   0   0   0   7   0   0   0   0   0   0   0   0   0   0   8   0   0   0   8 99 65 56 54 53 45 37 36 
   7   0   0   0   4   0   0   0   0   0   0   4   6   0   0   0   6   0   0   9   0   0   0   0   0   7   0   0   0   0   0  16 98 96 95 94 93 90 77 70 65 64 61 60 59 55 52 49 
   4   0   0  10   0   0   0   6   0   0   0   0   0   0   0   0   3   0   0   7   0   0   0   0   0   0   0   0   0   0   7  20 101 100 97 95 94 91 90 87 82 81 80 79 77 76 71 68 63 61 53 49 
  10   0  10   0   0   0   0   0   0   0   0   8   0   0   0   8   5   0   0   0   0   0   7   9   0   0   0   0  10   0   0  21 99 98 97 96 95 94 93 91 90 89 88 85 84 82 80 79 77 72 71 68 51 
   1   0   0   0   0   0   0   0   0   6   0   0   8   0   5   0   0   0   0   0   0   0   0   0   0   0   7   0   0   5   0  19 101 100 95 93 91 90 87 80 79 78 77 76 71 70 63 59 56 55 53 
   8   0   0   0   0   0   0   0   0   0   0   0   6   8   9   0   0   0   0   0   0   0   0   0   0   0   0   0   0   0   0  12 98 95 84 78 71 70 64 63 55 51 49 41 
   7   0   0   0   0   0   0   2   0   0   0   0   0   4   0   0   0   0   0   0   0   0   0   0   0   0   0   4   0   0   0  12 98 95 93 88 78 70 66 65 64 59 57 47 
   7   0   0   0   0   0   0   0   0   0   0   0   0   0   0   0   0   0   0   0   0   0   0   0   0   0   0   0   4   5   0  17 98 96 93 92 91 90 88 86 85 84 82 77 71 68 64 63 59 
   9   0  10   0   6   0   0   0   0   0   0  10   0   0   0   0   0   0   0   0   0   5   0   0   0   0   0   0   0   0   0  16 97 95 94 93 92 91 86 85 84 80 79 72 70 60 55 54 
   1   0   0   0   0   0   0   0   0   0   0   0   0   0   0   0   0   0   0   5   0   0   8   0   4   0   9   0   0   0   0  14 98 94 90 89 87 84 80 72 71 70 64 63 59 49 
   1   0   5   0   0   0   6   0   0   0   0   0   0   0   0   0   0   0   0   0   0   0   0   0   0   0   0   7   5   0   0  15 99 95 93 89 87 82 80 77 76 75 71 70 63 59 52 
   9   0   0   0   0   0   0   0   0   0   0   6   0   6   0   0   0   0   0   0   3   0   0   0   0   0   0   0   0   0   0  17 99 96 94 92 91 90 88 87 86 85 84 83 82 71 70 64 55 
   7   0   0   0   0   0   0   0   0   0   0   6   0   0   0   0   0   4   0   0   0   0   0   5   0   0   0   0   0   0   0  12 97 93 91 89 87 82 79 75 71 68 58 49 
   6   0   0   9   0   0   3   0   0   0   0   0   7   0   0   0   0   0   0   0   0   0   0   0   0   0   0   0   0   0   0   8 98 97 90 89 75 63 54 40 
   3   0   0   0   0   0   0   0   0   0   0   0   3   0   0   0   0   0   0   0   0   0   0   0   0   0   0   0   0   0   4  11 100 95 93 91 90 87 86 68 66 64 56 
   8   0   0   0   0   8   0   0   0   0   0   0   0   7   0   0   0   0   0   0   0   0   0   6   0   0   0   0   6  10   0  10 98 97 94 91 84 81 72 70 63 49 
   1   0   5   0   0   0   0   4   0   0   0   0   0   0   0   0   0   0   0   0   0   0   0   0   0   0   0   0   0   0   0  11 95 94 93 91 89 88 85 78 64 63 59 
   9   0   0   0   0   4   0   0   0   0   7   0   8   0   0   0   0   0   6   0   0   0   0   0   0   0   0   0   0   6   0  10 96 93 89 86 85 83 81 70 67 60 
   3   0   0   0   0   0   0   0   0   0   0   0   0   0   0   0   0   0   0   0   0   9   0   0   0   0   0   0   0   0   0   7 90 82 79 71 65 64 51 
   3   4   0   0   0   0   0   0   0   0   0   0   0   0   0   0   0   5   0   0   0   0   7   0   0   0   0   0   0   0   0  11 96 95 94 93 91 87 86 84 81 73 70 
   4   0   0   0   0   0   0   0   0   0   0   0   0   0   0   0   0   0   9   0   0   0   0   0   0   0   0   0   0   0   0   9 96 94 93 90 88 86 83 73 60 
  10   0   0   8   0   5   4   0   0   0   0   0   0   0   0   0   0   0   0   3   0   0   0   0   6   0   0   0   0   0   0   8 95 91 90 89 82 81 68 63 
   7   0   0   7   0   0   0   0   8   0   0   0   0   0   8   0   0   0   0   0   0   0   0   0  10   0   0   0   6   9   0   8 95 87 83 82 81 78 70 61 
   2   0   0   0   0   0  10   0   0   0   0   0   0   0   0   2   0   0   0   0   0   0   0   0   0   0   0   0   0   0   0   8 89 88 84 82 78 72 70 67 
  10   0   5   0   0   0   0   0   9   0   0   0   0   0   0   6   0   0   0   0   0   0   0   0   0   0   0   0   0   0   0   7 85 82 81 75 71 70 63 
   7   0   0   0   6   0   0   0   0   0   0   0   0   1   0   0   5   0   0   0   9   0   0   0   0   9   0   0   0   0   6   7 94 88 87 82 71 70 65 
   4   0   0   2   0   4   0   0   0   0   0   0   0   8   0   6   0   0   0   0   0   0   5   0   0   0   0   0   0   0   0   8 96 92 90 89 84 81 75 73 
   7   6   6   0   0   0   0   0   0   0   0   8   0   0   9   0   0   0   3   0   0   0   0   0   0   0   0   6   0   0   8   6 88 85 81 77 75 63 
   9   0   0   2   0   0   0   0   0   0   7   0   0   0   0   0   0   0   0   0   0   0   0   5   0   0   0   9   0   0   0   7 92 88 86 85 83 74 73 
   1   0   0   0   0   0   0   7   0   0   0   0   0   0   0   0   0   0   0   0   0   0   0   2   0   0   0  10   0   0   9   5 87 86 85 83 70 
   8   0   0   0   0  10   0   0   0   0   0   0   0   0   0   0   7   0  10   0   0   0   0   0   0   0   0   0   0   0   0   5 92 86 83 81 75 
   4   0   0   0   0   5   8   0   5   0   0   6   0   0   7   8   0   0   0   0   0   0   0   0   0   0   0   0   0   3   0   5 91 85 84 79 73 
   1   0   0   0   8   0   0   0   0   0   0   0   0   0   0   0   0   0   0   0   0   0   0   0   0   0   0   0   0   7   0   5 96 84 75 74 73 
   2   7   0   6   0   0   0   8   0   0   0   0   6   8   0   0   0   0   0   0   0   0   0   0   0   0   0   0   0   0   0   4 82 81 74 71 
   7   0   0   0   0   0   0   0   0   0   0   0   0   0   0   0   0   0   0   0   0   0   0   7   0   0   9   0   0   0   0   4 89 81 74 73 
   9   0   0   4   0   7   0   0   6   0   0   4   0   0   0   0   0   0   0   0   0   0   0   0   0   0   0   0   0   0   0   4 83 82 75 73 
   7   0   0   0   0   0   0   0   0   0   2   0   0  10   7   0   0   0   0   0   0   0   0   0   0   0   0   0   0   0   0   3 85 75 71 
   8   0   0   0   0   0   0   0   0   0   0  10   0   0   0   0   7   0   0   0   0   0   0   0   0   7   0   0   0   0   0   3 98 90 70 
   2   0   4   7   0   0   0   0   0   0   0   6   0   0   0   0   0   0   0   3   0   0   0   0   0   0   0   0   0   0   0   3 97 83 73 
   4   0   0   0   5   0   0   0   0   0   0   0   0   0   0   0   0   0   4   0   0   0   0   0   0   0   1   5   0   0   0   3 87 82 74 
   4   6   6   0   0   6   0   0   0   0   0   0   0   0   0   0   0   0   0   0   7   9   0   0   7   0   0   0   9   0   4   3 84 74 73 
   4   9   0   9   0   0   0   0   0   0   0   0   0   0   0   0   0   0   0   7   0   0   0   0   0   0   0   0   0   0   0   3 91 88 73 
   9   0   0   0   8   0   0   0   7   0   0   0   0   0   0   0   0   0   0   0   0   0   6   0   0   0   0   0   0   0   0   2 74 73 
   2   0   0   9   4   0   0   0   0   0   0   0   0   0   0   0   0   0   0   7   0   0   0   7   6   0   0   4   0   0   0   2 81 75 
   4   0   0   6   0   0   0   0   0   0   0   0   0   0   0   0   0   0   0   0   0   0   0   0   0   8   5   0   0   0   0   2 74 73 
   6   0   0   0   0   0   0   0   0   0   0   0   0   0   0   0   0   0   0   0   0   0   0   0   0   0   0   0   0   0   0   2 80 74 
   5   0   0   0   4   0   0   0   0   8   0   0   0   0   0   0   0   0   0   0   0   0   0   0   0   0   0   0   0   0  10   2 74 73 
   8   0   0   0   9   0   0   0   0   3  10   0   0   0   0   0   6   0   0   0   0   0   0   0   0   0   0   0   0   0   0   1 70 
   2   0   0   0   0   0   0   0   0   0   0   0   0   0   0   0   7   0   0   0   0   0   0   0   0   3   0   0   1   0   0   1 70 
   5   0   0   0   0   0   0   0   0   0   0   0   0   0   0   0   7   0   0   0   0   0   7   0   0   0   0   9   0   6   4   1 74 
   7   0   6   0   0   0   0   0   0   0   8   0   0   0   0   0   0   0   0   0   0   0   0   9   0   0   0   0   0   0   0   1 73 
   4   0   7   0   0   0   0   0   0   0   0   0   0   0   0   4   0   0   0   0   0   6   0   0   0   0   0   0   0   0   0   1 75 
   8   0   0   0   0   0   0   0   0   0   0   9   0   0   0   0   0   0   0   0   0   0   0   0   8   0   8   0   0   0   0   1 102
   3   0   0   0   0   0   8   0   0   0   8   0   0   0   0   0   0   0   0   0   0   0   0   7   5   0   0   0   0   8   0   1 102
   3   0   0   0   0   0   0   0   0   0   0   0   0   0   0   0   9   0   0   0   6   0   0   3   0   0   0   0   9   0   0   1 102
   4   0   0   0   0   0   0   0   0   0   0   0   0   0   0   0   0   0   0   0   0   0   0   0   0   0   6   0   0   0   5   1 102
   8   0   0   0   0   0   0   8   0   7   0   0   0   0   0   0   0   0   0   0   0   0   0   0   0   0   0   0   0   0   0   1 102
   7   0   0   0   0   0   0   8   0   0   0   0   7   0   0   9   0   0   0   0   0   0   0   0   0   9   0   0   0   0   0   1 102
   3   0   0   0   0   0   0   0   0   0   6   0   0   0   0   0   0   0   0   0   0   0   0   7   0   0   0   0   0   0   0   1 102
   4   0   0   0   5   0   0   8   6   0   0   6   0   0   0   0   0   0   6   0   0   0   0   0   0   0   0   0   0   0   0   1 102
  10   0   0   0   0   0   0   0   0   0   0   0   8   0   8   0   0   0   0   0   0   0   0   0   0   0   0   0   0   0   0   1 102
   1   0   0   0   0   0   0   0   0   0   0   0   0   0   0   0   0   0   0   0   0   0   0   0   0   0   0   0   0   0   0   1 102
   1   0   0   0   0   5   0   0   0   6   0   0   4   0   0   0   0   0   0   0   0   0   9   0   0   0   0   0   0   0   0   1 102
   4   0   0   0   0   0   0   0   0   0   0   0   0   0   5   0   0   0   0   0   0   0   0   0   0   0   0   7   0   0   0   1 102
   9   0   0   0   0   0   6   0   0   0   0   0   0   0   0   0   0   9   0   0   0   0   0   0   0   5   0   0   0   0   0   1 102
   4   0   0   0   0   0   0   0   0   0   0   0   0   0   0   0   0   0   0   0   0   0   0   0   0   0   0   0   7   0   0   1 102
   6   0   0   4   0   0   0   0   0   0   0   0   0   0   0   0   0   0   0   0   0   0   0   0   0   0   0   0   0   0   0   1 102
   7   0   0   0   0   0   0   0   0   0   0   0   0   0   0   0   0   0   0   0   0   0   0   0   0   5   0   0   0   0   0   1 102
   8   0   3   0   8   0   0   0   0   6   0   0   0   0   0   0   0   0   0   0   0   0   0   0   9   0   0   0   0   0   5   1 102
   1   0   0   0   0   9   0   0   0   0   5   0   0   3   0   0   0   0   0   0   0   0   0   0   0   0   0   0   0   0   0   1 102
  10   0   0   0   0   0   6   0   0   0   0   0   0   0   5   0   0   0   0   0  10   7   0   0   0   0   0   0   0   0   0   1 102
   1   0   0   0   0   0   0   0   0   0   0   0   0   0   2   0   0   0   0   0   0   0   4   0   0   0   0   0   0   0   0   1 102
   9  10   0   0   0   8   0   0   0   3   0   0   0   0   8   0   0   0   0   0   0   0   0   0   0   0   0   0   0   6   0   1 102
   5   4   0   0   0   0   0   0   0  10   0   0   0   0   6   0   0   0   8   0   0   0   6   0   0   0   0   0   0   0   9   1 102
   9   6   0   0   0   9   0   0   0   8   0   0   0   0   0   0   0   0   6   0   7   0   0   0   0   0   0   0   0   0   0   1 102
   4   0   0   0   5   0   0   4   0   0   0   0   0   0   0   0   0   0   7   0   0   0   0   0   0   0   0   3   5   0   6   1 102
   5   6   0   0   6   0   0   0   0   0   6   0   0   0   0   0   0   0   0   0   0   0   6   0   6   0   0   0   0   0   0   1 102
   9   0   0   0   0   3   0   0   0   0   4   0   0   0   0   9   0   0   0   0   5   0   0   0   0   0   0   0   0   0   0   1 102
   7   0   0   8   0   0   0   0   0   5   0   0   0   0   0   0   0   0   0   8   0   0   0   0   0   0   0   0   0   0   0   1 102
   5   0   0   0   0   0   0   0   0   0   0   0   8  10   0   0   0   0   0   0   0   5   0   0   0   0   0   0   0   0   0   1 102
   1   8  10   0   0   0   0   0   7   0   0   7   0   0   0   0   0   0   0   2   0   0   0   0   0   0   0   0   0   0   0   1 102
   0   0   0   0   0   0   0   0   0   0   0   0   0   0   0   0   0   0   0   0   0   0   0   0   0   0   0   0   0   0   0   0 
